91
raw_data/rcpsp/DC2-npv75.xlsx rcpspdc451
Time limit set to 60 seconds
Running CP solver
/home/omastto1/General-Optimization-Solver/src/solvers/rcpsp.py:31(stream:95:6): Warning: Cumulative expression 'pulse': height is zero, expression is zero everywhere.
                                                                                            VarCumulAtom_238 = pulse("0", 0)
/home/omastto1/General-Optimization-Solver/src/solvers/rcpsp.py:31(stream:95:1212): Warning: Cumulative expression 'pulse': height is zero, expression is zero everywhere.
                                                                                               VarCumulAtom_314 = pulse("76", 0)
/home/omastto1/General-Optimization-Solver/src/solvers/rcpsp.py:31(stream:96:6): Warning: Cumulative expression 'pulse': height is zero, expression is zero everywhere.
                                                                                            VarCumulAtom_318 = pulse("0", 0)
/home/omastto1/General-Optimization-Solver/src/solvers/rcpsp.py:31(stream:96:1212): Warning: Cumulative expression 'pulse': height is zero, expression is zero everywhere.
                                                                                               VarCumulAtom_394 = pulse("76", 0)
/home/omastto1/General-Optimization-Solver/src/solvers/rcpsp.py:31(stream:97:6): Warning: Cumulative expression 'pulse': height is zero, expression is zero everywhere.
                                                                                            VarCumulAtom_398 = pulse("0", 0)
/home/omastto1/General-Optimization-Solver/src/solvers/rcpsp.py:31(stream:97:1212): Warning: Cumulative expression 'pulse': height is zero, expression is zero everywhere.
                                                                                               VarCumulAtom_474 = pulse("76", 0)
/home/omastto1/General-Optimization-Solver/src/solvers/rcpsp.py:31(stream:98:6): Warning: Cumulative expression 'pulse': height is zero, expression is zero everywhere.
                                                                                            VarCumulAtom_478 = pulse("0", 0)
/home/omastto1/General-Optimization-Solver/src/solvers/rcpsp.py:31(stream:98:1212): Warning: Cumulative expression 'pulse': height is zero, expression is zero everywhere.
                                                                                               VarCumulAtom_554 = pulse("76", 0)
 ! --------------------------------------------------- CP Optimizer 20.1.0.0 --
 ! Minimization problem - 78 variables, 488 constraints
 ! TimeLimit            = 60
 ! Workers              = 14
 ! LogVerbosity         = Terse
 ! Initial process time : 0.02s (0.02s extraction + 0.00s propagation)
 !  . Log search space  : 502.5 (before), 502.5 (after)
 !  . Memory usage      : 900.7 kB (before), 900.7 kB (after)
 ! Using parallel search with 14 workers.
 ! ----------------------------------------------------------------------------
 !          Best Branches  Non-fixed    W       Branch decision
                        0         78                 -
 + New bound is 49
 ! Using iterative diving.
 ! Using temporal relaxation.
 *           141      157  1.07s        1      (gap is 65.25%)
 *           130     1375  1.07s        1      (gap is 62.31%)
             130     4881          3    1            -
 + New bound is 109 (gap is 16.15%)
 ! Using failure-directed search.
 *           129     5702  1.07s        2      (gap is 15.50%)
 *           128     6830  1.07s        3      (gap is 14.84%)
 *           127     5404  1.07s       10      (gap is 14.17%)
 *           126    16743  3.25s       10      (gap is 13.49%)
 *           125    19947  4.36s        3      (gap is 12.80%)
 *           124    24127  4.36s       10      (gap is 12.10%)
 *           123    25252  5.44s       11      (gap is 11.38%)
 *           122    24218  5.44s        2      (gap is 10.66%)
 *           121    36456  7.60s        4      (gap is 9.92%)
 *           120    45214  12.00s       9      (gap is 9.17%)
 *           119     186k  53.91s       7      (gap is 8.40%)
 ! ----------------------------------------------------------------------------
 ! Search terminated by limit, 13 solutions found.
 ! Best objective         : 119 (gap is 8.40%)
 ! Best bound             : 109
 ! ----------------------------------------------------------------------------
 ! Number of branches     : 4472083
 ! Number of fails        : 916842
 ! Total memory usage     : 13.4 MB (13.3 MB CP Optimizer + 0.1 MB Concert)
 ! Time spent in solve    : 60.08s (60.06s engine + 0.02s extraction)
 ! Search speed (br. / s) : 74460.3
 ! ----------------------------------------------------------------------------
(109,)
(0.0840336,)
(119,)
Objective value: 119
Solution is 7.2 % worse than the lower bound.
Feasible solution found
